100 10
489 427
499 102
443 263
784 550
529 610
860 451
684 307
697 228
752 422
812 865
659 422
799 607
617 710
640 624
514 411
576 277
400 391
512 175
292 454
161 440
838 574
274 611
724 662
579 335
420 173
601 376
591 251
383 410
454 202
373 183
832 632
639 425
901 422
631 530
801 618
937 386
665 634
588 493
700 492
504 582
424 432
785 352
402 287
768 193
238 235
274 778
470 525
658 609
716 795
455 331
647 311
525 594
789 511
449 512
525 696
544 738
197 258
380 452
644 283
650 531
729 525
526 768
662 325
879 406
768 529
667 579
489 332
212 293
468 937
444 558
240 393
652 662
561 75
724 367
786 354
218 366
291 414
418 156
465 266
649 330
864 507
743 379
556 616
404 185
579 324
396 743
383 352
693 572
218 404
688 405
619 364
571 388
428 228
473 725
486 762
267 377
439 689
138 212
511 420
453 915
